p tdp 74 73
21 2
61 33
30 13
41 70
53 4
15 24
6 25
74 48
40 31
47 9
62 68
40 35
38 26
54 58
17 32
6 52
44 70
68 52
53 38
47 13
32 14
59 38
10 51
21 52
54 62
40 70
28 63
67 42
42 69
1 39
20 40
37 19
18 65
29 31
66 34
43 45
60 72
70 42
57 46
65 38
15 19
36 16
29 5
17 27
73 59
8 28
39 22
55 11
3 47
45 58
36 39
53 30
6 7
23 36
7 56
45 71
48 8
46 44
27 51
50 29
66 64
72 55
1 61
60 17
26 49
20 63
64 2
21 10
56 22
53 43
16 19
59 12
50 30
